52
52
52
52
52
52
52
52
52
52
52
52
52
53
53
53
53
53
53
53
53
53
53
53
53
53
53
53
53
53
53
53
53
53
53
53
53
53
53
53
53
53
53
53
53
53
53
54
54
54
54
54
54
54
54
54
54
54
54
54
54
54
54
54
54
54
54
54
54
54
54
54
54
54
54
54
54
54
54
55
55
55
55
55
55
55
55
55
55
55
55
55
55
55
55
55
55
55
55
55
55
55
55
55
55
55
55
55
55
55
55
56
56
56
56
56
56
56
56
56
56
56
56
56
56
56
56
56
56
56
56
56
56
56
56
56
56
56
56
56
56
57
57
57
57
57
57
57
57
57
57
57
57
57
57
57
57
57
57
57
57
57
57
57
57
57
57
57
57
57
57
58
58
58
58
58
58
58
58
58
58
58
58
58
58
58
58
58
58
58
58
58
58
58
58
58
58
58
58
59
59
59
59
59
59
59
59
59
59
59
59
59
59
59
59
59
59
59
59
59
59
59
59
59
59
59
59
60
60
60
60
60
60
60
60
60
60
60
60
60
60
60
60
60
60
60
60
60
60
60
60
60
60
60
61
61
61
61
61
61
61
61
61
61
61
61
61
61
61
61
61
61
61
61
61
61
61
61
61
61
62
62
62
62
62
62
62
62
62
62
62
62
62
62
62
62
62
62
62
62
62
62
62
62
62
63
63
63
63
63
63
63
63
63
63
63
63
63
63
63
63
63
63
63
63
63
63
63
63
64
64
64
64
64
64
64
64
64
64
64
64
64
64
64
64
64
64
64
64
64
64
64
64
65
65
65
65
65
65
65
65
65
65
65
65
65
65
65
65
65
65
65
65
65
65
65
66
66
66
66
66
66
66
66
66
66
66
66
66
66
66
66
66
66
66
66
66
66
66
67
67
67
67
67
67
67
67
67
67
67
67
67
67
67
67
67
67
67
67
67
67
68
68
68
68
68
68
68
68
68
68
68
68
68
68
68
68
68
68
68
68
68
69
69
69
69
69
69
69
69
69
69
69
69
69
69
69
69
69
69
69
69
69
70
70
70
70
70
70
70
70
70
70
70
70
70
70
70
70
70
70
70
70
71
71
71
71
71
71
71
71
71
71
71
71
71
71
71
71
71
71
71
71
72
72
72
72
72
72
72
72
72
72
72
72
72
72
72
72
72
72
72
73
73
73
73
73
73
73
73
73
73
73
73
73
73
73
73
73
73
74
74
74
74
74
74
74
74
74
74
74
74
74
74
74
74
74
74
74
75
75
75
75
75
75
75
75
75
75
75
75
75
75
75
75
75
76
76
76
76
76
76
76
76
76
76
76
76
76
76
76
76
76
76
77
77
77
77
77
77
77
77
77
77
77
77
77
77
77
77
77
78
78
78
78
78
78
78
78
78
78
78
78
78
78
78
78
79
79
79
79
79
79
79
79
79
79
79
79
79
79
79
79
80
80
80
80
80
80
80
80
80
80
80
80
80
80
80
80
81
81
81
81
81
81
81
81
81
81
81
81
81
81
81
81
82
82
82
82
82
82
82
82
82
82
82
82
82
82
82
83
83
83
83
83
83
83
83
83
83
83
83
83
83
84
84
84
84
84
84
84
84
84
84
84
84
84
84
84
85
85
85
85
85
85
85
85
85
85
85
85
85
85
86
86
86
86
86
86
86
86
86
86
86
86
86
86
87
87
87
87
87
87
87
87
87
87
87
87
87
88
88
88
88
88
88
88
88
88
88
88
88
88
89
89
89
89
89
89
89
89
89
89
89
89
89
90
90
90
90
90
90
90
90
90
90
90
90
90
91
91
91
91
91
91
91
91
91
91
91
91
92
92
92
92
92
92
92
92
92
92
92
92
93
93
93
93
93
93
93
93
93
93
93
93
94
94
94
94
94
94
94
94
94
94
94
94
95
95
95
95
95
95
95
95
95
95
95
96
96
96
96
96
96
96
96
96
96
96
97
97
97
97
97
97
97
97
97
97
97
98
98
98
98
98
98
98
98
98
98
98
99
99
99
99
99
99
99
99
99
99
99
100
100
100
100
100
100
100
100
100
100
101
101
101
101
101
101
101
101
101
101
102
102
102
102
102
102
102
102
102
102
103
103
103
103
103
103
103
103
103
103
104
104
104
104
104
104
104
104
104
104
105
105
105
105
105
105
105
105
105
106
106
106
106
106
106
106
106
106
107
107
107
107
107
107
107
107
107
108
108
108
108
108
108
108
108
108
109
109
109
109
109
109
109
109
109
110
110
110
110
110
110
110
110
110
111
111
111
111
111
111
111
111
112
112
112
112
112
112
112
112
112
113
113
113
113
113
113
113
113
114
114
114
114
114
114
114
114
115
115
115
115
115
115
115
115
116
116
116
116
116
116
116
116
117
117
117
117
117
117
117
118
118
118
118
118
118
118
118
119
119
119
119
119
119
119
120
120
120
120
120
120
120
120
121
121
121
121
121
121
121
122
122
122
122
122
122
122
123
123
123
123
123
123
123
124
124
124
124
124
124
124
125
125
125
125
125
125
125
126
126
126
126
126
126
127
127
127
127
127
127
127
128
128
128
128
128
128
129
129
129
129
129
129
129
130
130
130
130
130
130
131
131
131
131
131
131
132
132
132
132
132
132
133
133
133
133
133
133
134
134
134
134
134
134
135
135
135
135
135
135
136
136
136
136
136
136
137
137
137
137
137
138
138
138
138
138
138
139
139
139
139
139
139
140
140
140
140
140
141
141
141
141
141
142
142
142
142
142
142
143
143
143
143
143
144
144
144
144
144
145
145
145
145
145
146
146
146
146
146
147
147
147
147
147
148
148
148
148
148
149
149
149
149
149
150
150
150
150
150
151
151
151
151
152
152
152
152
152
153
153
153
153
153
154
154
154
154
155
155
155
155
155
156
156
156
156
157
157
157
157
158
158
158
158
158
159
159
159
159
160
160
160
160
161
161
161
161
162
162
162
162
163
163
163
163
163
164
164
164
164
165
165
165
165
166
166
166
167
167
167
167
168
168
168
168
169
169
169
169
170
170
170
170
171
171
171
172
172
172
172
173
173
173
173
174
174
174
175
175
175
175
176
176
176
177
177
177
177
178
178
178
179
179
179
179
180
180
180
181
181
181
182
182
182
182
183
183
183
184
184
184
185
185
185
186
186
186
187
187
187
188
188
188
189
189
189
189
190
190
190
191
191
191
192
192
193
193
193
194
194
194
195
195
195
196
196
196
197
197
197
198
198
198
199
199
200
200
200
201
201
201
202
202
203
203
203
204
204
204
205
205
206
206
206
207
207
207
208
208
209
209
209
210
210
211
211
212
212
212
213
213
214
214
214
215
215
216
216
217
217
217
218
218
219
219
220
220
220
221
221
222
222
223
223
224
224
224
225
225
226
226
227
227
228
228
229
229
230
230
231
231
232
232
233
233
234
234
235
235
236
236
237
237
238
238
239
239
240
240
241
241
242
242
243
243
244
244
245
246
246
247
247
248
248
249
249
250
251
251
252
252
253
253
254
255
255
256
256
257
258
258
259
259
260
261
261
262
262
263
264
264
265
266
266
267
268
268
269
269
270
271
271
272
273
273
274
275
276
276
277
278
278
279
280
280
281
282
283
283
284
285
285
286
287
288
288
289
290
291
291
292
293
294
295
295
296
297
298
298
299
300
301
302
303
303
304
305
306
307
308
308
309
310
311
312
313
314
315
315
316
317
318
319
320
321
322
323
324
325
326
326
327
328
329
330
331
332
333
334
335
336
337
338
339
340
341
343
344
345
346
347
348
349
350
351
352
353
354
356
357
358
359
360
361
363
364
365
366
367
369
370
371
372
373
375
376
377
378
380
381
382
384
385
386
388
389
390
392
393
394
396
397
399
400
402
403
404
406
407
409
410
412
413
415
416
418
420
421
423
424
426
428
429
431
432
434
436
438
439
441
443
444
446
448
450
452
453
455
457
459
461
463
465
467
469
470
472
474
476
478
480
483
485
487
489
491
493
495
497
500
502
504
506
509
511
513
516
518
520
523
525
528
530
533
535
538
540
543
546
548
551
554
556
559
562
565
568
570
573
576
579
582
585
588
591
594
597
601
604
607
610
614
617
620
624
627
631
634
638
642
645
649
653
656
660
664
668
672
676
680
684
688
692
697
701
705
710
714
719
723
728
733
737
742
747
752
757
762
767
773
778
783
789
794
800
805
811
817
823
829
835
841
848
854
860
867
874
880
887
894
901
908
916
923
931
938
946
954
962
970
979
987
996
1005
1014
1023
1032
1041
1051
1061
1071
1081
1091
1102
1112
1123
1135
1146
1158
1170
1182
1194
1207
1220
1233
1246
1260
1274
1288
1303
1318
1333
1349
1365
1382
1399
1416
1434
1452
1471
1490
1510
1530
1551
1572
1594
1616
1639
1663
1688
1713
1739
1766
1794
1822
1852
1882
1914
1946
1980
2015
2051
2088
2127
2167
2209
2252
2297
2344
2393
2444
2498
2553
2611
2672
2736
2803
2873
2947
3024
3106
3193
3284
3381
3484
3593
3709
3832
3965
4106
4259
4423
4600
4792
5000
5228
5477
5751
6054
6391
6767
7190
7670
8218
8851
9589
10461
11508
12787
14386
16442
19183
23021
28777
38371
57559
115124
